Minimize
  - 14 y_1 - 12 y_2 - 8 y_3 - 18 y_4 - 24 y_5 - 11 y_6 - 25 y_7 - 22 y_8
   - 16 y_9 + 48 x_0_2 + 45 x_0_6 + 23 x_1_3 + 77 x_1_7 + 30 x_2_4
   + 59 x_2_9 + 57 x_3_4 + 23 x_3_6 + 54 x_4_9 + 8 x_5_7 + 89 x_5_8
   + 83 x_5_9 + 64 x_8_4 + 26 x_8_9 + 26 x_8_9 + 26 x_8_9 + 26 x_8_9
   + 26 x_8_9 + 26 x_8_9 + 26 x_8_9 + 26 x_8_9 + 26 x_8_9 + 26 x_8_9
   + 26 x_8_9 + 26 x_8_9 + 26 x_8_9 + 26 x_8_9 + 26 x_8_9 + 26 x_8_9
   + 26 x_8_9 + 26 x_8_9 + 26 x_8_9 + 26 x_8_9 + 26 x_8_9 + 26 x_8_9
   + 26 x_8_9 + 26 x_8_9 + 26 x_8_9 + 26 x_8_9 + 26 x_8_9 + 26 x_8_9
   + 26 x_8_9 + 26 x_8_9 + 26 x_8_9 + 26 x_8_9 + 26 x_8_9 + 26 x_8_9
   + 26 x_8_9 + 26 x_8_9 + 26 x_8_9 + 26 x_8_9 + 26 x_8_9 + 26 x_8_9
   + 26 x_8_9 + 26 x_8_9 + 26 x_8_9 + 26 x_8_9 + 26 x_8_9 + 26 x_8_9
   + 26 x_8_9 + 26 x_8_9 + 26 x_8_9 + 26 x_8_9 + 26 x_8_9 + 26 x_8_9
   + 26 x_8_9 + 26 x_8_9 + 26 x_8_9 + 26 x_8_9 + 26 x_8_9 + 26 x_8_9
   + 26 x_8_9 + 26 x_8_9 + 26 x_8_9 + 26 x_8_9 + 26 x_8_9 + 26 x_8_9
   + 26 x_8_9 + 26 x_8_9 + 26 x_8_9 + 26 x_8_9 + 26 x_8_9 + 26 x_8_9
   + 26 x_8_9 + 26 x_8_9 + 26 x_8_9 + 26 x_8_9 + 26 x_8_9 + 26 x_8_9
   + 26 x_8_9 + 26 x_8_9 + 26 x_8_9 + 26 x_8_9 + 26 x_8_9 + 26 x_8_9
   + 26 x_8_9 + 26 x_8_9 + 26 x_8_9 + 26 x_8_9 + 26 x_8_9 + 26 x_8_9
   + 26 x_8_9 + 26 x_8_9 + 26 x_8_9 + 26 x_8_9 + 26 x_8_9 + 26 x_8_9
   + 26 x_8_9 + 26 x_8_9 + 26 x_8_9 + 26 x_8_9 + 26 x_8_9 + 26 x_8_9
   + 26 x_8_9 + 26 x_8_9 + 26 x_8_9 + 26 x_8_9 + 26 x_8_9 + 26 x_8_9
   + 26 x_8_9 + 26 x_8_9 + 26 x_8_9 + 26 x_8_9 + 26 x_8_9 + 26 x_8_9
   + 26 x_8_9 + 26 x_8_9 + 26 x_8_9 + 26 x_8_9 + 26 x_8_9 + 26 x_8_9
   + 26 x_8_9 + 26 x_8_9 + 26 x_8_9 + 26 x_8_9 + 26 x_8_9 + 26 x_8_9
   + 26 x_8_9 + 26 x_8_9 + 26 x_8_9 + 150 Constant
Subject To
 c_0: y_0 = 1
 c_1_0: y_0 >= 1
 c_1_1: y_1 + y_9 >= 1
 c_1_2: y_2 >= 1
 c_1_3: y_3 >= 1
 c_1_4: y_4 >= 1
 c_1_5: y_5 + y_7 >= 1
 c_1_6: y_6 >= 1
 c_1_7: y_5 + y_7 >= 1
 c_1_8: y_8 >= 1
 c_1_9: y_1 + y_9 >= 1
 c_2_0: - 2 y_0 + x_0_2 + x_0_6 = 0
 c_2_1: - 2 y_1 + x_1_3 + x_1_7 = 0
 c_2_2: - 2 y_2 + x_0_2 + x_2_4 + x_2_9 = 0
 c_2_3: - 2 y_3 + x_1_3 + x_3_4 + x_3_6 = 0
 c_2_4: - 2 y_4 + x_2_4 + x_3_4 + x_4_9 + x_8_4 = 0
 c_2_5: - 2 y_5 + x_5_7 + x_5_8 + x_5_9 = 0
 c_2_6: - 2 y_6 + x_0_6 + x_3_6 = 0
 c_2_7: - 2 y_7 + x_1_7 + x_5_7 = 0
 c_2_8: - 2 y_8 + x_5_8 + x_8_4 + 127 x_8_9 = 0
 c_2_9: - 2 y_9 + x_2_9 + x_4_9 + x_5_9 + 127 x_8_9 = 0
Bounds
 Constant = 1
Binaries
 y_0 y_1 y_2 y_3 y_4 y_5 y_6 y_7 y_8 y_9 x_0_2 x_0_6 x_1_3 x_1_7 x_2_4
 x_2_9 x_3_4 x_3_6 x_4_9 x_5_7 x_5_8 x_5_9 x_8_4 x_8_9 x_8_9 x_8_9 x_8_9
 x_8_9 x_8_9 x_8_9 x_8_9 x_8_9 x_8_9 x_8_9 x_8_9 x_8_9 x_8_9 x_8_9 x_8_9
 x_8_9 x_8_9 x_8_9 x_8_9 x_8_9 x_8_9 x_8_9 x_8_9 x_8_9 x_8_9 x_8_9 x_8_9
 x_8_9 x_8_9 x_8_9 x_8_9 x_8_9 x_8_9 x_8_9 x_8_9 x_8_9 x_8_9 x_8_9 x_8_9
 x_8_9 x_8_9 x_8_9 x_8_9 x_8_9 x_8_9 x_8_9 x_8_9 x_8_9 x_8_9 x_8_9 x_8_9
 x_8_9 x_8_9 x_8_9 x_8_9 x_8_9 x_8_9 x_8_9 x_8_9 x_8_9 x_8_9 x_8_9 x_8_9
 x_8_9 x_8_9 x_8_9 x_8_9 x_8_9 x_8_9 x_8_9 x_8_9 x_8_9 x_8_9 x_8_9 x_8_9
 x_8_9 x_8_9 x_8_9 x_8_9 x_8_9 x_8_9 x_8_9 x_8_9 x_8_9 x_8_9 x_8_9 x_8_9
 x_8_9 x_8_9 x_8_9 x_8_9 x_8_9 x_8_9 x_8_9 x_8_9 x_8_9 x_8_9 x_8_9 x_8_9
 x_8_9 x_8_9 x_8_9 x_8_9 x_8_9 x_8_9 x_8_9 x_8_9 x_8_9 x_8_9 x_8_9 x_8_9
 x_8_9 x_8_9 x_8_9 x_8_9 x_8_9 x_8_9 x_8_9 x_8_9 x_8_9 x_8_9 x_8_9 x_8_9
 x_8_9 x_8_9 x_8_9
End
